(set-option :opt.dump_models true)
(set-option :sat.ddfw_search true)
(set-option :sat.xor.solver true)
(define-fun s1 () int 67)
(define-fun s3 () int 5)
(declare-fun s0 () int)
(declare-fun s13 () int)
(define-fun s2 () bool (<= s0 s1))
(define-fun s4 () bool (>= s0 s3))
(define-fun s10 () bool s4)
(define-fun s11 () bool (and s2 s10))
(assert s11)
(assert (= s0 s13))
(maximize s13)
(check-sat)